(set-info :smt-lib-version 2.6)
(set-logic UF)
(set-info :source |Benchmarks from the paper: "Extending Sledgehammer with SMT Solvers" by Jasmin Blanchette, Sascha Bohme, and Lawrence C. Paulson, CADE 2011.  Translated to SMT2 by Andrew Reynolds and Morgan Deters.|)
(set-info :category "industrial")
(set-info :status sat)
(declare-sort S1 0)
(declare-sort S2 0)
(declare-sort S3 0)
(declare-sort S4 0)
(declare-sort S5 0)
(declare-sort S6 0)
(declare-sort S7 0)
(declare-sort S8 0)
(declare-sort S9 0)
(declare-sort S10 0)
(declare-sort S11 0)
(declare-sort S12 0)
(declare-sort S13 0)
(declare-sort S14 0)
(declare-sort S15 0)
(declare-sort S16 0)
(declare-sort S17 0)
(declare-sort S18 0)
(declare-sort S19 0)
(declare-sort S20 0)
(declare-sort S21 0)
(declare-sort S22 0)
(declare-sort S23 0)
(declare-sort S24 0)
(declare-sort S25 0)
(declare-sort S26 0)
(declare-sort S27 0)
(declare-sort S28 0)
(declare-sort S29 0)
(declare-sort S30 0)
(declare-sort S31 0)
(declare-sort S32 0)
(declare-sort S33 0)
(declare-sort S34 0)
(declare-sort S35 0)
(declare-sort S36 0)
(declare-sort S37 0)
(declare-sort S38 0)
(declare-sort S39 0)
(declare-sort S40 0)
(declare-fun f1 () S1)
(declare-fun f2 () S1)
(declare-fun f3 (S3 S2) S1)
(declare-fun f4 () S3)
(declare-fun f5 (S4 S3) S1)
(declare-fun f6 (S5 S2) S4)
(declare-fun f7 () S5)
(declare-fun f8 (S6 S7) S3)
(declare-fun f9 () S6)
(declare-fun f10 () S7)
(declare-fun f11 (S8 S9) S3)
(declare-fun f12 (S10 S9) S8)
(declare-fun f13 (S11 S12) S10)
(declare-fun f14 () S11)
(declare-fun f15 () S12)
(declare-fun f16 () S9)
(declare-fun f17 (S12 S13) S14)
(declare-fun f18 (S15 S12) S14)
(declare-fun f19 (S16 S1) S15)
(declare-fun f20 () S16)
(declare-fun f21 () S12)
(declare-fun f22 (S17 S13) S1)
(declare-fun f23 () S17)
(declare-fun f24 (S19 S13) S13)
(declare-fun f25 (S20 S13) S19)
(declare-fun f26 () S20)
(declare-fun f27 (S21 S18) S13)
(declare-fun f28 (S22 S18) S21)
(declare-fun f29 () S22)
(declare-fun f30 (S23 S18) S18)
(declare-fun f31 () S23)
(declare-fun f32 () S18)
(declare-fun f33 (S24 S18) S2)
(declare-fun f34 (S25 S13) S24)
(declare-fun f35 () S25)
(declare-fun f36 (S26 S3) S3)
(declare-fun f37 () S26)
(declare-fun f38 (S14 S18) S1)
(declare-fun f39 (S27 S13) S17)
(declare-fun f40 () S27)
(declare-fun f41 () S13)
(declare-fun f42 (S9 S13) S12)
(declare-fun f43 (S28 S17) S17)
(declare-fun f44 () S28)
(declare-fun f45 () S17)
(declare-fun f46 () S13)
(declare-fun f47 (S29 S13) S23)
(declare-fun f48 () S29)
(declare-fun f49 () S13)
(declare-fun f50 () S18)
(declare-fun f51 (S30 S2) S13)
(declare-fun f52 () S30)
(declare-fun f53 (S7) S31)
(declare-fun f54 () S31)
(declare-fun f55 () S3)
(declare-fun f56 (S32 S17) S1)
(declare-fun f57 (S33 S13) S32)
(declare-fun f58 () S33)
(declare-fun f59 (S34 S18) S23)
(declare-fun f60 () S34)
(declare-fun f61 () S1)
(declare-fun f62 (S35 S17) S32)
(declare-fun f63 () S35)
(declare-fun f64 (S36 S3) S4)
(declare-fun f65 () S36)
(declare-fun f66 (S37 S1) S1)
(declare-fun f67 (S38 S1) S37)
(declare-fun f68 () S38)
(declare-fun f69 () S18)
(declare-fun f70 (S39 S17) S28)
(declare-fun f71 () S39)
(declare-fun f72 (S40 S3) S26)
(declare-fun f73 () S40)
(assert (not (= f1 f2)))
(assert (forall ((?v0 S2)) (= (= (f3 f4 ?v0) f1) (and (= (f5 (f6 f7 ?v0) (f8 f9 f10)) f1) (= (f3 (f11 (f12 (f13 f14 f15) f16) f16) ?v0) f1)))))
(assert (forall ((?v0 S13)) (= (f17 f15 ?v0) (f18 (f19 f20 f2) f21))))
(assert (forall ((?v0 S13)) (= (= (f22 f23 ?v0) f1) (exists ((?v1 S18) (?v2 S13)) (and (= ?v0 (f24 (f25 f26 (f27 (f28 f29 (f30 f31 ?v1)) f32)) ?v2)) (= (f5 (f6 f7 (f33 (f34 f35 ?v2) ?v1)) (f36 f37 f4)) f1))))))
(assert (forall ((?v0 S13) (?v1 S18)) (= (= (f38 (f17 f21 ?v0) ?v1) f1) (= (f22 (f39 f40 ?v0) f41) f1))))
(assert (forall ((?v0 S13) (?v1 S13) (?v2 S18)) (= (= (f38 (f17 (f42 f16 ?v0) ?v1) ?v2) f1) false)))
(assert (not (not (= (f43 f44 f23) f45))))
(assert (and (= (f5 (f6 f7 (f33 (f34 f35 f46) (f30 (f47 f48 f49) f50))) (f36 f37 f4)) f1) (= (f22 (f39 f40 f49) f41) f1)))
(assert (forall ((?v0 S2)) (=> (= (f5 (f6 f7 ?v0) (f8 f9 f10)) f1) (not (= (f51 f52 ?v0) f41)))))
(assert (= (f53 f10) f54))
(assert (forall ((?v0 S13) (?v1 S13)) (= (= (f22 (f39 f40 ?v0) ?v1) f1) (= (f22 (f39 f40 (f24 (f25 f26 ?v0) ?v1)) f41) f1))))
(assert (forall ((?v0 S13) (?v1 S13)) (= (= (f22 (f39 f40 ?v0) ?v1) f1) (= (f22 (f39 f40 (f24 (f25 f26 ?v0) ?v1)) f41) f1))))
(assert (forall ((?v0 S12) (?v1 S9) (?v2 S9) (?v3 S13) (?v4 S18)) (= (= (f3 (f11 (f12 (f13 f14 ?v0) ?v1) ?v2) (f33 (f34 f35 ?v3) ?v4)) f1) (= (f38 (f17 ?v0 ?v3) ?v4) f1))))
(assert (forall ((?v0 S2)) (=> (= (f5 (f6 f7 ?v0) f55) f1) false)))
(assert (forall ((?v0 S13)) (=> (= (f56 (f57 f58 ?v0) f45) f1) false)))
(assert (forall ((?v0 S18) (?v1 S18) (?v2 S18)) (= (f27 (f28 f29 (f30 (f59 f60 ?v0) ?v1)) ?v2) (f24 (f25 f26 (f27 (f28 f29 ?v0) ?v2)) (f27 (f28 f29 ?v1) ?v2)))))
(assert (forall ((?v0 S13)) (= (= (f22 f45 ?v0) f1) (= f61 f1))))
(assert (forall ((?v0 S2)) (= (= (f3 f55 ?v0) f1) (= f61 f1))))
(assert (forall ((?v0 S13)) (= (= (f22 f45 ?v0) f1) (= f61 f1))))
(assert (forall ((?v0 S2)) (= (= (f3 f55 ?v0) f1) (= f61 f1))))
(assert (forall ((?v0 S13) (?v1 S13) (?v2 S13) (?v3 S13)) (=> (= (f24 (f25 f26 ?v0) ?v1) (f24 (f25 f26 ?v2) ?v3)) (= (= (f22 (f39 f40 ?v0) ?v1) f1) (= (f22 (f39 f40 ?v2) ?v3) f1)))))
(assert (forall ((?v0 S17)) (not (= (f56 (f62 f63 ?v0) f45) f1))))
(assert (forall ((?v0 S3)) (not (= (f5 (f64 f65 ?v0) f55) f1))))
(assert (forall ((?v0 S1)) (not (= (f66 (f67 f68 ?v0) f61) f1))))
(assert (forall ((?v0 S17)) (= (not (= ?v0 f45)) (= (f56 (f62 f63 f45) ?v0) f1))))
(assert (forall ((?v0 S3)) (= (not (= ?v0 f55)) (= (f5 (f64 f65 f55) ?v0) f1))))
(assert (forall ((?v0 S1)) (= (not (= (= ?v0 f1) (= f61 f1))) (= (f66 (f67 f68 f61) ?v0) f1))))
(assert (forall ((?v0 S13)) (= (f24 (f25 f26 ?v0) f41) ?v0)))
(assert (forall ((?v0 S18)) (= (f30 (f59 f60 ?v0) f69) ?v0)))
(assert (forall ((?v0 S17)) (= (f43 (f70 f71 ?v0) ?v0) f45)))
(assert (forall ((?v0 S3)) (= (f36 (f72 f73 ?v0) ?v0) f55)))
(assert (forall ((?v0 S17)) (= (f43 (f70 f71 ?v0) f45) ?v0)))
(assert (forall ((?v0 S3)) (= (f36 (f72 f73 ?v0) f55) ?v0)))
(assert (forall ((?v0 S17)) (= (f43 (f70 f71 f45) ?v0) f45)))
(assert (forall ((?v0 S3)) (= (f36 (f72 f73 f55) ?v0) f55)))
(assert (forall ((?v0 S17)) (not (= (f56 (f62 f63 ?v0) f45) f1))))
(assert (forall ((?v0 S3)) (not (= (f5 (f64 f65 ?v0) f55) f1))))
(assert (forall ((?v0 S18)) (= (f27 (f28 f29 ?v0) f69) f41)))
(assert (forall ((?v0 S18)) (= (f27 (f28 f29 f69) ?v0) f41)))
(assert (forall ((?v0 S13)) (= (= f41 ?v0) (= ?v0 f41))))
(assert (forall ((?v0 S13) (?v1 S13)) (=> (=> (= (f22 (f39 f40 ?v0) ?v1) f1) false) (=> (=> (= ?v0 ?v1) false) (=> (=> (= (f22 (f39 f40 ?v1) ?v0) f1) false) false)))))
(assert (forall ((?v0 S13) (?v1 S13)) (=> (= (f22 (f39 f40 ?v0) ?v1) f1) (=> (=> (not false) (= (f22 (f39 f40 ?v1) ?v0) f1)) false))))
(assert (forall ((?v0 S3) (?v1 S3)) (=> (= (f5 (f64 f65 ?v0) ?v1) f1) (=> (=> (not false) (= (f5 (f64 f65 ?v1) ?v0) f1)) false))))
(assert (forall ((?v0 S1) (?v1 S1)) (=> (= (f66 (f67 f68 ?v0) ?v1) f1) (=> (=> (not false) (= (f66 (f67 f68 ?v1) ?v0) f1)) false))))
(assert (forall ((?v0 S17) (?v1 S17)) (=> (= (f56 (f62 f63 ?v0) ?v1) f1) (=> (=> (not false) (= (f56 (f62 f63 ?v1) ?v0) f1)) false))))
(assert (forall ((?v0 S13) (?v1 S13) (?v2 S13)) (let ((?v_0 (f39 f40 ?v2))) (=> (= (f22 (f39 f40 ?v0) ?v1) f1) (=> (= (f22 ?v_0 ?v0) f1) (= (f22 ?v_0 ?v1) f1))))))
(assert (forall ((?v0 S3) (?v1 S3) (?v2 S3)) (let ((?v_0 (f64 f65 ?v2))) (=> (= (f5 (f64 f65 ?v0) ?v1) f1) (=> (= (f5 ?v_0 ?v0) f1) (= (f5 ?v_0 ?v1) f1))))))
(assert (forall ((?v0 S1) (?v1 S1) (?v2 S1)) (let ((?v_0 (f67 f68 ?v2))) (=> (= (f66 (f67 f68 ?v0) ?v1) f1) (=> (= (f66 ?v_0 ?v0) f1) (= (f66 ?v_0 ?v1) f1))))))
(assert (forall ((?v0 S17) (?v1 S17) (?v2 S17)) (let ((?v_0 (f62 f63 ?v2))) (=> (= (f56 (f62 f63 ?v0) ?v1) f1) (=> (= (f56 ?v_0 ?v0) f1) (= (f56 ?v_0 ?v1) f1))))))
(assert (forall ((?v0 S13) (?v1 S13) (?v2 S13)) (let ((?v_0 (f39 f40 ?v0))) (=> (= (f22 ?v_0 ?v1) f1) (=> (= (f22 (f39 f40 ?v1) ?v2) f1) (= (f22 ?v_0 ?v2) f1))))))
(assert (forall ((?v0 S3) (?v1 S3) (?v2 S3)) (let ((?v_0 (f64 f65 ?v0))) (=> (= (f5 ?v_0 ?v1) f1) (=> (= (f5 (f64 f65 ?v1) ?v2) f1) (= (f5 ?v_0 ?v2) f1))))))
(assert (forall ((?v0 S1) (?v1 S1) (?v2 S1)) (let ((?v_0 (f67 f68 ?v0))) (=> (= (f66 ?v_0 ?v1) f1) (=> (= (f66 (f67 f68 ?v1) ?v2) f1) (= (f66 ?v_0 ?v2) f1))))))
(assert (forall ((?v0 S17) (?v1 S17) (?v2 S17)) (let ((?v_0 (f62 f63 ?v0))) (=> (= (f56 ?v_0 ?v1) f1) (=> (= (f56 (f62 f63 ?v1) ?v2) f1) (= (f56 ?v_0 ?v2) f1))))))
(assert (forall ((?v0 S13) (?v1 S13) (?v2 S13)) (=> (= (f22 (f39 f40 ?v0) ?v1) f1) (=> (= ?v0 ?v2) (= (f22 (f39 f40 ?v2) ?v1) f1)))))
(assert (forall ((?v0 S3) (?v1 S3) (?v2 S3)) (=> (= (f5 (f64 f65 ?v0) ?v1) f1) (=> (= ?v0 ?v2) (= (f5 (f64 f65 ?v2) ?v1) f1)))))
(assert (forall ((?v0 S1) (?v1 S1) (?v2 S1)) (=> (= (f66 (f67 f68 ?v0) ?v1) f1) (=> (= (= ?v0 f1) (= ?v2 f1)) (= (f66 (f67 f68 ?v2) ?v1) f1)))))
(assert (forall ((?v0 S17) (?v1 S17) (?v2 S17)) (=> (= (f56 (f62 f63 ?v0) ?v1) f1) (=> (= ?v0 ?v2) (= (f56 (f62 f63 ?v2) ?v1) f1)))))
(assert (forall ((?v0 S13) (?v1 S13) (?v2 S13)) (let ((?v_0 (f39 f40 ?v0))) (=> (= (f22 ?v_0 ?v1) f1) (=> (= ?v1 ?v2) (= (f22 ?v_0 ?v2) f1))))))
(assert (forall ((?v0 S3) (?v1 S3) (?v2 S3)) (let ((?v_0 (f64 f65 ?v0))) (=> (= (f5 ?v_0 ?v1) f1) (=> (= ?v1 ?v2) (= (f5 ?v_0 ?v2) f1))))))
(assert (forall ((?v0 S1) (?v1 S1) (?v2 S1)) (let ((?v_0 (f67 f68 ?v0))) (=> (= (f66 ?v_0 ?v1) f1) (=> (= (= ?v1 f1) (= ?v2 f1)) (= (f66 ?v_0 ?v2) f1))))))
(assert (forall ((?v0 S17) (?v1 S17) (?v2 S17)) (let ((?v_0 (f62 f63 ?v0))) (=> (= (f56 ?v_0 ?v1) f1) (=> (= ?v1 ?v2) (= (f56 ?v_0 ?v2) f1))))))
(assert (forall ((?v0 S13) (?v1 S13) (?v2 S13)) (let ((?v_0 (f39 f40 ?v2))) (=> (= ?v0 ?v1) (=> (= (f22 ?v_0 ?v1) f1) (= (f22 ?v_0 ?v0) f1))))))
(assert (forall ((?v0 S3) (?v1 S3) (?v2 S3)) (let ((?v_0 (f64 f65 ?v2))) (=> (= ?v0 ?v1) (=> (= (f5 ?v_0 ?v1) f1) (= (f5 ?v_0 ?v0) f1))))))
(assert (forall ((?v0 S1) (?v1 S1) (?v2 S1)) (let ((?v_0 (f67 f68 ?v2))) (=> (= (= ?v0 f1) (= ?v1 f1)) (=> (= (f66 ?v_0 ?v1) f1) (= (f66 ?v_0 ?v0) f1))))))
(assert (forall ((?v0 S17) (?v1 S17) (?v2 S17)) (let ((?v_0 (f62 f63 ?v2))) (=> (= ?v0 ?v1) (=> (= (f56 ?v_0 ?v1) f1) (= (f56 ?v_0 ?v0) f1))))))
(assert (forall ((?v0 S13) (?v1 S13) (?v2 S13)) (=> (= ?v0 ?v1) (=> (= (f22 (f39 f40 ?v1) ?v2) f1) (= (f22 (f39 f40 ?v0) ?v2) f1)))))
(assert (forall ((?v0 S3) (?v1 S3) (?v2 S3)) (=> (= ?v0 ?v1) (=> (= (f5 (f64 f65 ?v1) ?v2) f1) (= (f5 (f64 f65 ?v0) ?v2) f1)))))
(assert (forall ((?v0 S1) (?v1 S1) (?v2 S1)) (=> (= (= ?v0 f1) (= ?v1 f1)) (=> (= (f66 (f67 f68 ?v1) ?v2) f1) (= (f66 (f67 f68 ?v0) ?v2) f1)))))
(assert (forall ((?v0 S17) (?v1 S17) (?v2 S17)) (=> (= ?v0 ?v1) (=> (= (f56 (f62 f63 ?v1) ?v2) f1) (= (f56 (f62 f63 ?v0) ?v2) f1)))))
(assert (forall ((?v0 S13) (?v1 S13)) (=> (= (f22 (f39 f40 ?v0) ?v1) f1) (=> (= (f22 (f39 f40 ?v1) ?v0) f1) false))))
(assert (forall ((?v0 S3) (?v1 S3)) (=> (= (f5 (f64 f65 ?v0) ?v1) f1) (=> (= (f5 (f64 f65 ?v1) ?v0) f1) false))))
(assert (forall ((?v0 S1) (?v1 S1)) (=> (= (f66 (f67 f68 ?v0) ?v1) f1) (=> (= (f66 (f67 f68 ?v1) ?v0) f1) false))))
(assert (forall ((?v0 S17) (?v1 S17)) (=> (= (f56 (f62 f63 ?v0) ?v1) f1) (=> (= (f56 (f62 f63 ?v1) ?v0) f1) false))))
(assert (forall ((?v0 S13) (?v1 S13)) (=> (= (f22 (f39 f40 ?v0) ?v1) f1) (=> (= (f22 (f39 f40 ?v1) ?v0) f1) false))))
(assert (forall ((?v0 S3) (?v1 S3)) (=> (= (f5 (f64 f65 ?v0) ?v1) f1) (=> (= (f5 (f64 f65 ?v1) ?v0) f1) false))))
(assert (forall ((?v0 S1) (?v1 S1)) (=> (= (f66 (f67 f68 ?v0) ?v1) f1) (=> (= (f66 (f67 f68 ?v1) ?v0) f1) false))))
(assert (forall ((?v0 S17) (?v1 S17)) (=> (= (f56 (f62 f63 ?v0) ?v1) f1) (=> (= (f56 (f62 f63 ?v1) ?v0) f1) false))))
(assert (forall ((?v0 S13) (?v1 S13) (?v2 S1)) (=> (= (f22 (f39 f40 ?v0) ?v1) f1) (= (=> (= (f22 (f39 f40 ?v1) ?v0) f1) (= ?v2 f1)) true))))
(assert (forall ((?v0 S3) (?v1 S3) (?v2 S1)) (=> (= (f5 (f64 f65 ?v0) ?v1) f1) (= (=> (= (f5 (f64 f65 ?v1) ?v0) f1) (= ?v2 f1)) true))))
(assert (forall ((?v0 S1) (?v1 S1) (?v2 S1)) (=> (= (f66 (f67 f68 ?v0) ?v1) f1) (= (=> (= (f66 (f67 f68 ?v1) ?v0) f1) (= ?v2 f1)) true))))
(assert (forall ((?v0 S17) (?v1 S17) (?v2 S1)) (=> (= (f56 (f62 f63 ?v0) ?v1) f1) (= (=> (= (f56 (f62 f63 ?v1) ?v0) f1) (= ?v2 f1)) true))))
(check-sat)
(exit)
